
(set-logic ALL) 

(declare-datatype MyList ((Nil) (Cons (head Real) (tail MyList)) )) 
(declare-fun l0 () MyList) 
(declare-fun l1 () MyList) 
(declare-fun l2 () MyList) 
(declare-fun l3 () MyList) 
(declare-fun i0 () Real) 
(declare-fun i1 () Real) 
(assert (is-Nil Nil) )
(assert (and (= l2 Nil) (= l2 Nil) (is-Cons Nil) (= l0 Nil)) )
(assert (and (= l1 l0) (is-Nil Nil)) )
(assert (is-Cons Nil) )
(assert (not (= l0 l1)) )
(assert (= l2 Nil) )
(assert (and (is-Cons Nil) (= l2 Nil) (= l1 l2) (is-Cons l0)) )
(assert (is-Cons l0) )
(check-sat)
